NAME : portcgen-28-30
COMMENT : portcgen N=28, seed=30
TYPE : TSP
DIMENSION : 28
EDGE_WEIGHT_TYPE : EUC_2D
NODE_COORD_SECTION
1 225488 236087
2 -357582 -338359
3 86786 -304605
4 -56424 -419140
5 398917 343817
6 271915 -111288
7 -176515 130821
8 166505 30225
9 79258 -31180
10 -965 -316148
11 -12391 91242
12 -221110 548468
13 -68272 -131350
14 185423 143687
15 -38276 -213304
16 -302928 205099
17 -92878 -90563
18 -18590 229941
19 -93906 -22377
20 164365 -244226
21 -254257 49803
22 107079 2313
23 -303113 -6328
24 -53539 363792
25 221974 59450
26 123590 -156667
27 199187 -94180
28 150457 -67967
